65 39 69 67 30 10 74 72 61 
76 87 75 31 71 56 55 13 35 94 
88 51 28 
14 92 50 34 47 44 81 83 48 63 60 93 80 73 
45 62 38 84 96 58 5 
15 57 82 43 22 85 41 91 98 54 86 17 19 12 
52 21 27 29 33 23 64 40 78 9 6 68 46 90 77 100 70 1 
36 3 79 89 
42 37 26 32 97 11 95 53 99 7 8 49 59 66 2 4 16 24 20 18 25 

